c Generated Levenshtein permutation graph
p edge 132 612
e 2 30
e 2 32
e 2 33
e 2 34
e 2 39
e 2 41
e 2 42
e 2 43
e 2 58
e 2 60
e 2 61
e 2 62
e 2 81
e 2 83
e 2 84
e 2 85
e 3 26
e 3 32
e 3 33
e 3 34
e 3 41
e 3 42
e 3 43
e 3 54
e 3 60
e 3 61
e 3 62
e 3 83
e 3 84
e 3 85
e 4 26
e 4 30
e 4 31
e 4 39
e 4 40
e 4 60
e 4 61
e 4 62
e 4 83
e 4 84
e 4 85
e 5 26
e 5 30
e 5 31
e 5 39
e 5 40
e 5 54
e 5 58
e 5 59
e 5 81
e 5 82
e 7 23
e 7 24
e 7 25
e 7 36
e 7 37
e 7 38
e 7 41
e 7 51
e 7 52
e 7 53
e 7 78
e 7 79
e 7 80
e 7 83
e 8 35
e 8 37
e 8 38
e 8 42
e 8 44
e 8 45
e 8 46
e 8 47
e 8 63
e 8 65
e 8 66
e 8 70
e 8 72
e 8 73
e 8 74
e 8 75
e 8 77
e 8 79
e 8 80
e 8 84
e 8 86
e 8 87
e 8 88
e 8 89
e 8 105
e 8 107
e 8 108
e 8 112
e 8 114
e 8 115
e 8 116
e 8 117
e 9 21
e 9 37
e 9 38
e 9 42
e 9 44
e 9 45
e 9 46
e 9 47
e 9 49
e 9 63
e 9 64
e 9 67
e 9 72
e 9 73
e 9 74
e 9 75
e 9 79
e 9 80
e 9 84
e 9 86
e 9 87
e 9 88
e 9 89
e 9 107
e 9 108
e 9 112
e 9 114
e 9 115
e 9 116
e 9 117
e 10 21
e 10 35
e 10 36
e 10 39
e 10 63
e 10 64
e 10 67
e 10 72
e 10 73
e 10 74
e 10 75
e 10 79
e 10 80
e 10 84
e 10 86
e 10 87
e 10 88
e 10 89
e 10 105
e 10 106
e 10 109
e 11 21
e 11 35
e 11 36
e 11 39
e 11 49
e 11 77
e 11 78
e 11 81
e 12 22
e 12 24
e 12 25
e 12 37
e 12 38
e 12 41
e 12 50
e 12 52
e 12 53
e 12 79
e 12 80
e 12 83
e 13 21
e 13 24
e 13 25
e 13 42
e 13 44
e 13 47
e 13 49
e 13 52
e 13 53
e 13 63
e 13 64
e 13 65
e 13 66
e 13 72
e 13 75
e 13 84
e 13 86
e 13 89
e 13 112
e 13 114
e 13 117
e 14 21
e 14 22
e 14 23
e 14 35
e 14 39
e 14 52
e 14 53
e 14 63
e 14 64
e 14 65
e 14 66
e 14 72
e 14 75
e 14 84
e 14 86
e 14 89
e 14 105
e 14 109
e 15 21
e 15 22
e 15 23
e 15 35
e 15 39
e 15 49
e 15 50
e 15 51
e 15 77
e 15 81
e 16 22
e 16 23
e 16 36
e 16 40
e 16 52
e 16 53
e 16 79
e 16 80
e 16 83
e 17 22
e 17 23
e 17 63
e 17 72
e 17 75
e 17 84
e 17 86
e 17 89
e 18 22
e 18 23
e 18 49
e 18 77
e 18 81
e 19 22
e 19 23
e 19 36
e 19 40
e 19 50
e 19 51
e 19 78
e 19 82
e 21 51
e 21 53
e 21 78
e 21 80
e 21 88
e 22 54
e 22 56
e 22 57
e 22 58
e 22 59
e 22 60
e 22 61
e 22 70
e 22 77
e 22 80
e 22 81
e 22 82
e 22 83
e 22 84
e 22 89
e 22 96
e 22 98
e 22 99
e 22 100
e 22 101
e 22 102
e 22 103
e 22 112
e 23 49
e 23 54
e 23 55
e 23 58
e 23 59
e 23 60
e 23 61
e 23 67
e 23 80
e 23 81
e 23 82
e 23 83
e 23 84
e 23 89
e 23 98
e 23 99
e 23 100
e 23 101
e 23 102
e 23 103
e 23 112
e 24 54
e 24 55
e 24 58
e 24 59
e 24 60
e 24 61
e 24 67
e 24 80
e 24 81
e 24 82
e 24 83
e 24 84
e 24 89
e 24 96
e 24 97
e 24 109
e 25 49
e 25 77
e 25 78
e 25 79
e 25 86
e 26 50
e 26 51
e 26 52
e 26 56
e 26 57
e 26 65
e 26 78
e 26 79
e 26 82
e 26 83
e 26 85
e 26 87
e 26 92
e 26 93
e 26 94
e 26 98
e 26 99
e 26 107
e 27 51
e 27 52
e 27 58
e 27 61
e 27 78
e 27 79
e 27 81
e 27 84
e 27 93
e 27 94
e 27 100
e 27 103
e 27 120
e 27 121
e 27 123
e 27 126
e 28 50
e 28 54
e 28 78
e 28 79
e 28 81
e 28 84
e 28 93
e 28 94
e 28 100
e 28 103
e 28 120
e 28 121
e 28 123
e 28 126
e 29 50
e 29 54
e 29 78
e 29 79
e 29 81
e 29 84
e 29 92
e 29 96
e 30 50
e 30 51
e 30 52
e 30 55
e 30 64
e 30 78
e 30 79
e 30 82
e 30 83
e 30 85
e 30 87
e 30 93
e 30 94
e 30 98
e 30 99
e 30 107
e 31 50
e 31 51
e 31 52
e 31 81
e 31 84
e 31 100
e 31 103
e 31 123
e 31 126
e 32 50
e 32 51
e 32 52
e 32 81
e 32 84
e 32 96
e 33 50
e 33 51
e 33 52
e 33 55
e 33 64
e 33 78
e 33 79
e 33 82
e 33 83
e 33 85
e 33 87
e 33 92
e 33 97
e 33 106
e 34 81
e 34 84
e 35 50
e 35 53
e 35 80
e 35 88
e 36 49
e 36 53
e 36 54
e 36 55
e 36 56
e 36 57
e 36 58
e 36 61
e 36 81
e 36 84
e 36 89
e 36 100
e 36 103
e 36 112
e 37 53
e 37 54
e 37 55
e 37 56
e 37 57
e 37 58
e 37 61
e 37 81
e 37 84
e 37 89
e 37 96
e 37 109
e 38 49
e 38 50
e 38 51
e 38 52
e 38 77
e 38 86
e 39 50
e 39 51
e 39 52
e 39 55
e 39 56
e 39 57
e 39 59
e 39 60
e 39 62
e 39 78
e 39 79
e 39 87
e 39 93
e 39 94
e 39 107
e 40 50
e 40 51
e 40 52
e 40 54
e 40 58
e 40 61
e 41 50
e 41 51
e 41 52
e 41 54
e 41 58
e 41 61
e 42 50
e 42 51
e 42 52
e 42 55
e 42 56
e 42 57
e 42 59
e 42 60
e 42 62
e 42 78
e 42 79
e 42 87
e 42 92
e 42 106
e 43 54
e 43 58
e 43 61
e 44 53
e 44 80
e 44 88
e 45 54
e 45 58
e 45 61
e 45 81
e 45 84
e 45 89
e 46 49
e 46 77
e 46 86
e 47 50
e 47 51
e 47 52
e 47 78
e 47 79
e 47 87
e 50 96
e 50 99
e 50 103
e 50 126
e 51 99
e 51 103
e 51 126
e 52 96
e 52 97
e 52 98
e 52 100
e 52 123
e 54 92
e 54 94
e 54 99
e 54 102
e 54 121
e 55 94
e 55 103
e 55 106
e 55 107
e 55 109
e 55 112
e 56 94
e 56 103
e 56 106
e 56 107
e 56 109
e 56 112
e 57 92
e 57 93
e 57 96
e 57 100
e 58 94
e 58 99
e 58 102
e 58 121
e 59 103
e 59 109
e 59 112
e 60 96
e 60 100
e 61 92
e 61 93
e 61 97
e 61 98
e 61 101
e 61 120
e 63 108
e 63 116
e 64 97
e 64 98
e 64 109
e 64 112
e 64 117
e 65 97
e 65 98
e 65 109
e 65 112
e 65 117
e 66 105
e 66 114
e 67 97
e 67 98
e 67 101
e 67 106
e 67 107
e 67 115
e 70 97
e 70 98
e 70 101
e 70 106
e 70 107
e 70 115
e 72 108
e 72 116
e 73 109
e 73 112
e 73 117
e 74 105
e 74 114
e 75 106
e 75 107
e 75 115
e 78 103
e 78 126
e 79 96
e 79 100
e 79 123
e 81 94
e 81 121
e 84 92
e 84 93
e 84 120
